p cnf 560 1902
c p weight 224 -1 0
c p weight -224 1 0
c p weight 226 6.12323399573676603586882014729198302312846062338790031898128063403419218957424163818359375E-17 0
c p weight -226 1 0
c p weight 227 1 0
c p weight -227 1 0
c p weight 228 -1 0
c p weight -228 1 0
c p weight 230 -1 0
c p weight -230 1 0
c p weight 233 -1 0
c p weight -233 1 0
c p weight 236 -1 0
c p weight -236 1 0
c p weight 239 -1 0
c p weight -239 1 0
c p weight 242 -1 0
c p weight -242 1 0
c p weight 245 -1 0
c p weight -245 1 0
c p weight 248 -1 0
c p weight -248 1 0
c p weight 251 -1 0
c p weight -251 1 0
c p weight 254 -1 0
c p weight -254 1 0
c p weight 257 -1 0
c p weight -257 1 0
c p weight 260 -1 0
c p weight -260 1 0
c p weight 263 -1 0
c p weight -263 1 0
c p weight 266 -1 0
c p weight -266 1 0
c p weight 269 -1 0
c p weight -269 1 0
c p weight 272 -1 0
c p weight -272 1 0
c p weight 275 -1 0
c p weight -275 1 0
c p weight 278 -1 0
c p weight -278 1 0
c p weight 281 -1 0
c p weight -281 1 0
c p weight 284 -1 0
c p weight -284 1 0
c p weight 287 -1 0
c p weight -287 1 0
c p weight 290 -1 0
c p weight -290 1 0
c p weight 293 -1 0
c p weight -293 1 0
c p weight 296 -1 0
c p weight -296 1 0
c p weight 299 -1 0
c p weight -299 1 0
c p weight 302 -1 0
c p weight -302 1 0
c p weight 305 -1 0
c p weight -305 1 0
c p weight 308 -1 0
c p weight -308 1 0
c p weight 311 -1 0
c p weight -311 1 0
c p weight 314 -1 0
c p weight -314 1 0
c p weight 317 -1 0
c p weight -317 1 0
c p weight 320 -1 0
c p weight -320 1 0
c p weight 323 -1 0
c p weight -323 1 0
c p weight 326 -1 0
c p weight -326 1 0
c p weight 329 -1 0
c p weight -329 1 0
c p weight 332 -1 0
c p weight -332 1 0
c p weight 335 -1 0
c p weight -335 1 0
c p weight 338 -1 0
c p weight -338 1 0
c p weight 341 -1 0
c p weight -341 1 0
c p weight 344 -1 0
c p weight -344 1 0
c p weight 347 -1 0
c p weight -347 1 0
c p weight 350 -1 0
c p weight -350 1 0
c p weight 353 -1 0
c p weight -353 1 0
c p weight 356 -1 0
c p weight -356 1 0
c p weight 359 -1 0
c p weight -359 1 0
c p weight 362 -1 0
c p weight -362 1 0
c p weight 365 -1 0
c p weight -365 1 0
c p weight 368 -1 0
c p weight -368 1 0
c p weight 371 -1 0
c p weight -371 1 0
c p weight 374 -1 0
c p weight -374 1 0
c p weight 377 -1 0
c p weight -377 1 0
c p weight 380 -1 0
c p weight -380 1 0
c p weight 383 -1 0
c p weight -383 1 0
c p weight 386 -1 0
c p weight -386 1 0
c p weight 389 -1 0
c p weight -389 1 0
c p weight 392 -1 0
c p weight -392 1 0
c p weight 395 -1 0
c p weight -395 1 0
c p weight 398 -1 0
c p weight -398 1 0
c p weight 401 -1 0
c p weight -401 1 0
c p weight 404 -1 0
c p weight -404 1 0
c p weight 407 -1 0
c p weight -407 1 0
c p weight 410 -1 0
c p weight -410 1 0
c p weight 413 -1 0
c p weight -413 1 0
c p weight 416 -1 0
c p weight -416 1 0
c p weight 419 -1 0
c p weight -419 1 0
c p weight 422 -1 0
c p weight -422 1 0
c p weight 425 -1 0
c p weight -425 1 0
c p weight 428 -1 0
c p weight -428 1 0
c p weight 431 -1 0
c p weight -431 1 0
c p weight 434 -1 0
c p weight -434 1 0
c p weight 437 -1 0
c p weight -437 1 0
c p weight 440 -1 0
c p weight -440 1 0
c p weight 443 -1 0
c p weight -443 1 0
c p weight 446 -1 0
c p weight -446 1 0
c p weight 449 -1 0
c p weight -449 1 0
c p weight 452 -1 0
c p weight -452 1 0
c p weight 455 -1 0
c p weight -455 1 0
c p weight 458 -1 0
c p weight -458 1 0
c p weight 461 -1 0
c p weight -461 1 0
c p weight 464 -1 0
c p weight -464 1 0
c p weight 467 -1 0
c p weight -467 1 0
c p weight 470 -1 0
c p weight -470 1 0
c p weight 473 -1 0
c p weight -473 1 0
c p weight 476 -1 0
c p weight -476 1 0
c p weight 479 -1 0
c p weight -479 1 0
c p weight 482 -1 0
c p weight -482 1 0
c p weight 485 -1 0
c p weight -485 1 0
c p weight 488 -1 0
c p weight -488 1 0
c p weight 491 -1 0
c p weight -491 1 0
c p weight 494 -1 0
c p weight -494 1 0
c p weight 497 -1 0
c p weight -497 1 0
c p weight 500 -1 0
c p weight -500 1 0
c p weight 503 -1 0
c p weight -503 1 0
c p weight 506 -1 0
c p weight -506 1 0
c p weight 509 -1 0
c p weight -509 1 0
c p weight 512 -1 0
c p weight -512 1 0
c p weight 515 -1 0
c p weight -515 1 0
c p weight 518 -1 0
c p weight -518 1 0
c p weight 521 -1 0
c p weight -521 1 0
c p weight 524 -1 0
c p weight -524 1 0
c p weight 527 -1 0
c p weight -527 1 0
c p weight 530 -1 0
c p weight -530 1 0
c p weight 533 -1 0
c p weight -533 1 0
c p weight 536 -1 0
c p weight -536 1 0
c p weight 539 -1 0
c p weight -539 1 0
c p weight 542 -1 0
c p weight -542 1 0
c p weight 545 -1 0
c p weight -545 1 0
c p weight 548 -1 0
c p weight -548 1 0
c p weight 551 -1 0
c p weight -551 1 0
c p weight 554 -1 0
c p weight -554 1 0
c p weight 557 -1 0
c p weight -557 1 0
c p weight 560 -1 0
c p weight -560 1 0
-221 0
-219 0
-217 0
-215 0
-213 0
-211 0
-209 0
-207 0
-205 0
-203 0
-201 0
-199 0
-197 0
-195 0
-193 0
-191 0
-189 0
-187 0
-185 0
-183 0
-181 0
-179 0
-177 0
-175 0
-173 0
-171 0
-169 0
-167 0
-165 0
-163 0
-161 0
-159 0
-157 0
-155 0
-153 0
-151 0
-149 0
-147 0
-145 0
-143 0
-141 0
-139 0
-137 0
-135 0
-133 0
-131 0
-129 0
-127 0
-125 0
-123 0
-121 0
-119 0
-117 0
-115 0
-113 0
-111 0
-109 0
-107 0
-105 0
-103 0
-101 0
-99 0
-97 0
-95 0
-93 0
-91 0
-89 0
-87 0
-85 0
-83 0
-81 0
-79 0
-77 0
-75 0
-73 0
-71 0
-69 0
-67 0
-65 0
-63 0
-61 0
-59 0
-57 0
-55 0
-53 0
-51 0
-49 0
-47 0
-45 0
-43 0
-41 0
-39 0
-37 0
-35 0
-33 0
-31 0
-29 0
-27 0
-25 0
-23 0
-21 0
-19 0
-17 0
-15 0
-13 0
-11 0
-9 0
-7 0
-5 0
-3 0
-1 0
223 221 -222 0
223 -221 222 0
-223 221 222 0
-223 -221 -222 0
-224 221 0
-224 222 0
224 -221 -222 0
225 -221 223 0
-225 221 223 0
-226 223 0
225 -226 -221 0
-225 -226 221 0
225 226 221 -223 0
-225 226 -221 -223 0
-227 223 0
225 -227 221 0
-225 -227 -221 0
225 227 -221 -223 0
-225 227 221 -223 0
-228 225 0
-228 223 0
-228 -221 0
228 -225 221 -223 0
229 225 -223 0
229 -225 223 0
-229 225 223 0
-229 -225 -223 0
-230 225 0
-230 223 0
230 -225 -223 0
231 225 -219 0
231 -225 219 0
-231 225 219 0
-231 -225 -219 0
232 229 -220 0
232 -229 220 0
-232 229 220 0
-232 -229 -220 0
-233 225 0
-233 220 0
-233 219 -229 0
-233 -219 229 0
233 -225 219 229 -220 0
233 -225 -219 -229 -220 0
234 231 -217 0
234 -231 217 0
-234 231 217 0
-234 -231 -217 0
235 220 -218 0
235 -220 218 0
-235 220 218 0
-235 -220 -218 0
-236 231 0
-236 218 0
-236 217 -220 0
-236 -217 220 0
236 -231 217 220 -218 0
236 -231 -217 -220 -218 0
237 234 -215 0
237 -234 215 0
-237 234 215 0
-237 -234 -215 0
238 218 -216 0
238 -218 216 0
-238 218 216 0
-238 -218 -216 0
-239 234 0
-239 216 0
-239 215 -218 0
-239 -215 218 0
239 -234 215 218 -216 0
239 -234 -215 -218 -216 0
240 237 -213 0
240 -237 213 0
-240 237 213 0
-240 -237 -213 0
241 216 -214 0
241 -216 214 0
-241 216 214 0
-241 -216 -214 0
-242 237 0
-242 214 0
-242 213 -216 0
-242 -213 216 0
242 -237 213 216 -214 0
242 -237 -213 -216 -214 0
243 240 -211 0
243 -240 211 0
-243 240 211 0
-243 -240 -211 0
244 214 -212 0
244 -214 212 0
-244 214 212 0
-244 -214 -212 0
-245 240 0
-245 212 0
-245 211 -214 0
-245 -211 214 0
245 -240 211 214 -212 0
245 -240 -211 -214 -212 0
246 243 -209 0
246 -243 209 0
-246 243 209 0
-246 -243 -209 0
247 212 -210 0
247 -212 210 0
-247 212 210 0
-247 -212 -210 0
-248 243 0
-248 210 0
-248 209 -212 0
-248 -209 212 0
248 -243 209 212 -210 0
248 -243 -209 -212 -210 0
249 246 -207 0
249 -246 207 0
-249 246 207 0
-249 -246 -207 0
250 210 -208 0
250 -210 208 0
-250 210 208 0
-250 -210 -208 0
-251 246 0
-251 208 0
-251 207 -210 0
-251 -207 210 0
251 -246 207 210 -208 0
251 -246 -207 -210 -208 0
252 249 -205 0
252 -249 205 0
-252 249 205 0
-252 -249 -205 0
253 208 -206 0
253 -208 206 0
-253 208 206 0
-253 -208 -206 0
-254 249 0
-254 206 0
-254 205 -208 0
-254 -205 208 0
254 -249 205 208 -206 0
254 -249 -205 -208 -206 0
255 252 -203 0
255 -252 203 0
-255 252 203 0
-255 -252 -203 0
256 206 -204 0
256 -206 204 0
-256 206 204 0
-256 -206 -204 0
-257 252 0
-257 204 0
-257 203 -206 0
-257 -203 206 0
257 -252 203 206 -204 0
257 -252 -203 -206 -204 0
258 255 -201 0
258 -255 201 0
-258 255 201 0
-258 -255 -201 0
259 204 -202 0
259 -204 202 0
-259 204 202 0
-259 -204 -202 0
-260 255 0
-260 202 0
-260 201 -204 0
-260 -201 204 0
260 -255 201 204 -202 0
260 -255 -201 -204 -202 0
261 258 -199 0
261 -258 199 0
-261 258 199 0
-261 -258 -199 0
262 202 -200 0
262 -202 200 0
-262 202 200 0
-262 -202 -200 0
-263 258 0
-263 200 0
-263 199 -202 0
-263 -199 202 0
263 -258 199 202 -200 0
263 -258 -199 -202 -200 0
264 261 -197 0
264 -261 197 0
-264 261 197 0
-264 -261 -197 0
265 200 -198 0
265 -200 198 0
-265 200 198 0
-265 -200 -198 0
-266 261 0
-266 198 0
-266 197 -200 0
-266 -197 200 0
266 -261 197 200 -198 0
266 -261 -197 -200 -198 0
267 264 -195 0
267 -264 195 0
-267 264 195 0
-267 -264 -195 0
268 198 -196 0
268 -198 196 0
-268 198 196 0
-268 -198 -196 0
-269 264 0
-269 196 0
-269 195 -198 0
-269 -195 198 0
269 -264 195 198 -196 0
269 -264 -195 -198 -196 0
270 267 -193 0
270 -267 193 0
-270 267 193 0
-270 -267 -193 0
271 196 -194 0
271 -196 194 0
-271 196 194 0
-271 -196 -194 0
-272 267 0
-272 194 0
-272 193 -196 0
-272 -193 196 0
272 -267 193 196 -194 0
272 -267 -193 -196 -194 0
273 270 -191 0
273 -270 191 0
-273 270 191 0
-273 -270 -191 0
274 194 -192 0
274 -194 192 0
-274 194 192 0
-274 -194 -192 0
-275 270 0
-275 192 0
-275 191 -194 0
-275 -191 194 0
275 -270 191 194 -192 0
275 -270 -191 -194 -192 0
276 273 -189 0
276 -273 189 0
-276 273 189 0
-276 -273 -189 0
277 192 -190 0
277 -192 190 0
-277 192 190 0
-277 -192 -190 0
-278 273 0
-278 190 0
-278 189 -192 0
-278 -189 192 0
278 -273 189 192 -190 0
278 -273 -189 -192 -190 0
279 276 -187 0
279 -276 187 0
-279 276 187 0
-279 -276 -187 0
280 190 -188 0
280 -190 188 0
-280 190 188 0
-280 -190 -188 0
-281 276 0
-281 188 0
-281 187 -190 0
-281 -187 190 0
281 -276 187 190 -188 0
281 -276 -187 -190 -188 0
282 279 -185 0
282 -279 185 0
-282 279 185 0
-282 -279 -185 0
283 188 -186 0
283 -188 186 0
-283 188 186 0
-283 -188 -186 0
-284 279 0
-284 186 0
-284 185 -188 0
-284 -185 188 0
284 -279 185 188 -186 0
284 -279 -185 -188 -186 0
285 282 -183 0
285 -282 183 0
-285 282 183 0
-285 -282 -183 0
286 186 -184 0
286 -186 184 0
-286 186 184 0
-286 -186 -184 0
-287 282 0
-287 184 0
-287 183 -186 0
-287 -183 186 0
287 -282 183 186 -184 0
287 -282 -183 -186 -184 0
288 285 -181 0
288 -285 181 0
-288 285 181 0
-288 -285 -181 0
289 184 -182 0
289 -184 182 0
-289 184 182 0
-289 -184 -182 0
-290 285 0
-290 182 0
-290 181 -184 0
-290 -181 184 0
290 -285 181 184 -182 0
290 -285 -181 -184 -182 0
291 288 -179 0
291 -288 179 0
-291 288 179 0
-291 -288 -179 0
292 182 -180 0
292 -182 180 0
-292 182 180 0
-292 -182 -180 0
-293 288 0
-293 180 0
-293 179 -182 0
-293 -179 182 0
293 -288 179 182 -180 0
293 -288 -179 -182 -180 0
294 291 -177 0
294 -291 177 0
-294 291 177 0
-294 -291 -177 0
295 180 -178 0
295 -180 178 0
-295 180 178 0
-295 -180 -178 0
-296 291 0
-296 178 0
-296 177 -180 0
-296 -177 180 0
296 -291 177 180 -178 0
296 -291 -177 -180 -178 0
297 294 -175 0
297 -294 175 0
-297 294 175 0
-297 -294 -175 0
298 178 -176 0
298 -178 176 0
-298 178 176 0
-298 -178 -176 0
-299 294 0
-299 176 0
-299 175 -178 0
-299 -175 178 0
299 -294 175 178 -176 0
299 -294 -175 -178 -176 0
300 297 -173 0
300 -297 173 0
-300 297 173 0
-300 -297 -173 0
301 176 -174 0
301 -176 174 0
-301 176 174 0
-301 -176 -174 0
-302 297 0
-302 174 0
-302 173 -176 0
-302 -173 176 0
302 -297 173 176 -174 0
302 -297 -173 -176 -174 0
303 300 -171 0
303 -300 171 0
-303 300 171 0
-303 -300 -171 0
304 174 -172 0
304 -174 172 0
-304 174 172 0
-304 -174 -172 0
-305 300 0
-305 172 0
-305 171 -174 0
-305 -171 174 0
305 -300 171 174 -172 0
305 -300 -171 -174 -172 0
306 303 -169 0
306 -303 169 0
-306 303 169 0
-306 -303 -169 0
307 172 -170 0
307 -172 170 0
-307 172 170 0
-307 -172 -170 0
-308 303 0
-308 170 0
-308 169 -172 0
-308 -169 172 0
308 -303 169 172 -170 0
308 -303 -169 -172 -170 0
309 306 -167 0
309 -306 167 0
-309 306 167 0
-309 -306 -167 0
310 170 -168 0
310 -170 168 0
-310 170 168 0
-310 -170 -168 0
-311 306 0
-311 168 0
-311 167 -170 0
-311 -167 170 0
311 -306 167 170 -168 0
311 -306 -167 -170 -168 0
312 309 -165 0
312 -309 165 0
-312 309 165 0
-312 -309 -165 0
313 168 -166 0
313 -168 166 0
-313 168 166 0
-313 -168 -166 0
-314 309 0
-314 166 0
-314 165 -168 0
-314 -165 168 0
314 -309 165 168 -166 0
314 -309 -165 -168 -166 0
315 312 -163 0
315 -312 163 0
-315 312 163 0
-315 -312 -163 0
316 166 -164 0
316 -166 164 0
-316 166 164 0
-316 -166 -164 0
-317 312 0
-317 164 0
-317 163 -166 0
-317 -163 166 0
317 -312 163 166 -164 0
317 -312 -163 -166 -164 0
318 315 -161 0
318 -315 161 0
-318 315 161 0
-318 -315 -161 0
319 164 -162 0
319 -164 162 0
-319 164 162 0
-319 -164 -162 0
-320 315 0
-320 162 0
-320 161 -164 0
-320 -161 164 0
320 -315 161 164 -162 0
320 -315 -161 -164 -162 0
321 318 -159 0
321 -318 159 0
-321 318 159 0
-321 -318 -159 0
322 162 -160 0
322 -162 160 0
-322 162 160 0
-322 -162 -160 0
-323 318 0
-323 160 0
-323 159 -162 0
-323 -159 162 0
323 -318 159 162 -160 0
323 -318 -159 -162 -160 0
324 321 -157 0
324 -321 157 0
-324 321 157 0
-324 -321 -157 0
325 160 -158 0
325 -160 158 0
-325 160 158 0
-325 -160 -158 0
-326 321 0
-326 158 0
-326 157 -160 0
-326 -157 160 0
326 -321 157 160 -158 0
326 -321 -157 -160 -158 0
327 324 -155 0
327 -324 155 0
-327 324 155 0
-327 -324 -155 0
328 158 -156 0
328 -158 156 0
-328 158 156 0
-328 -158 -156 0
-329 324 0
-329 156 0
-329 155 -158 0
-329 -155 158 0
329 -324 155 158 -156 0
329 -324 -155 -158 -156 0
330 327 -153 0
330 -327 153 0
-330 327 153 0
-330 -327 -153 0
331 156 -154 0
331 -156 154 0
-331 156 154 0
-331 -156 -154 0
-332 327 0
-332 154 0
-332 153 -156 0
-332 -153 156 0
332 -327 153 156 -154 0
332 -327 -153 -156 -154 0
333 330 -151 0
333 -330 151 0
-333 330 151 0
-333 -330 -151 0
334 154 -152 0
334 -154 152 0
-334 154 152 0
-334 -154 -152 0
-335 330 0
-335 152 0
-335 151 -154 0
-335 -151 154 0
335 -330 151 154 -152 0
335 -330 -151 -154 -152 0
336 333 -149 0
336 -333 149 0
-336 333 149 0
-336 -333 -149 0
337 152 -150 0
337 -152 150 0
-337 152 150 0
-337 -152 -150 0
-338 333 0
-338 150 0
-338 149 -152 0
-338 -149 152 0
338 -333 149 152 -150 0
338 -333 -149 -152 -150 0
339 336 -147 0
339 -336 147 0
-339 336 147 0
-339 -336 -147 0
340 150 -148 0
340 -150 148 0
-340 150 148 0
-340 -150 -148 0
-341 336 0
-341 148 0
-341 147 -150 0
-341 -147 150 0
341 -336 147 150 -148 0
341 -336 -147 -150 -148 0
342 339 -145 0
342 -339 145 0
-342 339 145 0
-342 -339 -145 0
343 148 -146 0
343 -148 146 0
-343 148 146 0
-343 -148 -146 0
-344 339 0
-344 146 0
-344 145 -148 0
-344 -145 148 0
344 -339 145 148 -146 0
344 -339 -145 -148 -146 0
345 342 -143 0
345 -342 143 0
-345 342 143 0
-345 -342 -143 0
346 146 -144 0
346 -146 144 0
-346 146 144 0
-346 -146 -144 0
-347 342 0
-347 144 0
-347 143 -146 0
-347 -143 146 0
347 -342 143 146 -144 0
347 -342 -143 -146 -144 0
348 345 -141 0
348 -345 141 0
-348 345 141 0
-348 -345 -141 0
349 144 -142 0
349 -144 142 0
-349 144 142 0
-349 -144 -142 0
-350 345 0
-350 142 0
-350 141 -144 0
-350 -141 144 0
350 -345 141 144 -142 0
350 -345 -141 -144 -142 0
351 348 -139 0
351 -348 139 0
-351 348 139 0
-351 -348 -139 0
352 142 -140 0
352 -142 140 0
-352 142 140 0
-352 -142 -140 0
-353 348 0
-353 140 0
-353 139 -142 0
-353 -139 142 0
353 -348 139 142 -140 0
353 -348 -139 -142 -140 0
354 351 -137 0
354 -351 137 0
-354 351 137 0
-354 -351 -137 0
355 140 -138 0
355 -140 138 0
-355 140 138 0
-355 -140 -138 0
-356 351 0
-356 138 0
-356 137 -140 0
-356 -137 140 0
356 -351 137 140 -138 0
356 -351 -137 -140 -138 0
357 354 -135 0
357 -354 135 0
-357 354 135 0
-357 -354 -135 0
358 138 -136 0
358 -138 136 0
-358 138 136 0
-358 -138 -136 0
-359 354 0
-359 136 0
-359 135 -138 0
-359 -135 138 0
359 -354 135 138 -136 0
359 -354 -135 -138 -136 0
360 357 -133 0
360 -357 133 0
-360 357 133 0
-360 -357 -133 0
361 136 -134 0
361 -136 134 0
-361 136 134 0
-361 -136 -134 0
-362 357 0
-362 134 0
-362 133 -136 0
-362 -133 136 0
362 -357 133 136 -134 0
362 -357 -133 -136 -134 0
363 360 -131 0
363 -360 131 0
-363 360 131 0
-363 -360 -131 0
364 134 -132 0
364 -134 132 0
-364 134 132 0
-364 -134 -132 0
-365 360 0
-365 132 0
-365 131 -134 0
-365 -131 134 0
365 -360 131 134 -132 0
365 -360 -131 -134 -132 0
366 363 -129 0
366 -363 129 0
-366 363 129 0
-366 -363 -129 0
367 132 -130 0
367 -132 130 0
-367 132 130 0
-367 -132 -130 0
-368 363 0
-368 130 0
-368 129 -132 0
-368 -129 132 0
368 -363 129 132 -130 0
368 -363 -129 -132 -130 0
369 366 -127 0
369 -366 127 0
-369 366 127 0
-369 -366 -127 0
370 130 -128 0
370 -130 128 0
-370 130 128 0
-370 -130 -128 0
-371 366 0
-371 128 0
-371 127 -130 0
-371 -127 130 0
371 -366 127 130 -128 0
371 -366 -127 -130 -128 0
372 369 -125 0
372 -369 125 0
-372 369 125 0
-372 -369 -125 0
373 128 -126 0
373 -128 126 0
-373 128 126 0
-373 -128 -126 0
-374 369 0
-374 126 0
-374 125 -128 0
-374 -125 128 0
374 -369 125 128 -126 0
374 -369 -125 -128 -126 0
375 372 -123 0
375 -372 123 0
-375 372 123 0
-375 -372 -123 0
376 126 -124 0
376 -126 124 0
-376 126 124 0
-376 -126 -124 0
-377 372 0
-377 124 0
-377 123 -126 0
-377 -123 126 0
377 -372 123 126 -124 0
377 -372 -123 -126 -124 0
378 375 -121 0
378 -375 121 0
-378 375 121 0
-378 -375 -121 0
379 124 -122 0
379 -124 122 0
-379 124 122 0
-379 -124 -122 0
-380 375 0
-380 122 0
-380 121 -124 0
-380 -121 124 0
380 -375 121 124 -122 0
380 -375 -121 -124 -122 0
381 378 -119 0
381 -378 119 0
-381 378 119 0
-381 -378 -119 0
382 122 -120 0
382 -122 120 0
-382 122 120 0
-382 -122 -120 0
-383 378 0
-383 120 0
-383 119 -122 0
-383 -119 122 0
383 -378 119 122 -120 0
383 -378 -119 -122 -120 0
384 381 -117 0
384 -381 117 0
-384 381 117 0
-384 -381 -117 0
385 120 -118 0
385 -120 118 0
-385 120 118 0
-385 -120 -118 0
-386 381 0
-386 118 0
-386 117 -120 0
-386 -117 120 0
386 -381 117 120 -118 0
386 -381 -117 -120 -118 0
387 384 -115 0
387 -384 115 0
-387 384 115 0
-387 -384 -115 0
388 118 -116 0
388 -118 116 0
-388 118 116 0
-388 -118 -116 0
-389 384 0
-389 116 0
-389 115 -118 0
-389 -115 118 0
389 -384 115 118 -116 0
389 -384 -115 -118 -116 0
390 387 -113 0
390 -387 113 0
-390 387 113 0
-390 -387 -113 0
391 116 -114 0
391 -116 114 0
-391 116 114 0
-391 -116 -114 0
-392 387 0
-392 114 0
-392 113 -116 0
-392 -113 116 0
392 -387 113 116 -114 0
392 -387 -113 -116 -114 0
393 390 -111 0
393 -390 111 0
-393 390 111 0
-393 -390 -111 0
394 114 -112 0
394 -114 112 0
-394 114 112 0
-394 -114 -112 0
-395 390 0
-395 112 0
-395 111 -114 0
-395 -111 114 0
395 -390 111 114 -112 0
395 -390 -111 -114 -112 0
396 393 -109 0
396 -393 109 0
-396 393 109 0
-396 -393 -109 0
397 112 -110 0
397 -112 110 0
-397 112 110 0
-397 -112 -110 0
-398 393 0
-398 110 0
-398 109 -112 0
-398 -109 112 0
398 -393 109 112 -110 0
398 -393 -109 -112 -110 0
399 396 -107 0
399 -396 107 0
-399 396 107 0
-399 -396 -107 0
400 110 -108 0
400 -110 108 0
-400 110 108 0
-400 -110 -108 0
-401 396 0
-401 108 0
-401 107 -110 0
-401 -107 110 0
401 -396 107 110 -108 0
401 -396 -107 -110 -108 0
402 399 -105 0
402 -399 105 0
-402 399 105 0
-402 -399 -105 0
403 108 -106 0
403 -108 106 0
-403 108 106 0
-403 -108 -106 0
-404 399 0
-404 106 0
-404 105 -108 0
-404 -105 108 0
404 -399 105 108 -106 0
404 -399 -105 -108 -106 0
405 402 -103 0
405 -402 103 0
-405 402 103 0
-405 -402 -103 0
406 106 -104 0
406 -106 104 0
-406 106 104 0
-406 -106 -104 0
-407 402 0
-407 104 0
-407 103 -106 0
-407 -103 106 0
407 -402 103 106 -104 0
407 -402 -103 -106 -104 0
408 405 -101 0
408 -405 101 0
-408 405 101 0
-408 -405 -101 0
409 104 -102 0
409 -104 102 0
-409 104 102 0
-409 -104 -102 0
-410 405 0
-410 102 0
-410 101 -104 0
-410 -101 104 0
410 -405 101 104 -102 0
410 -405 -101 -104 -102 0
411 408 -99 0
411 -408 99 0
-411 408 99 0
-411 -408 -99 0
412 102 -100 0
412 -102 100 0
-412 102 100 0
-412 -102 -100 0
-413 408 0
-413 100 0
-413 99 -102 0
-413 -99 102 0
413 -408 99 102 -100 0
413 -408 -99 -102 -100 0
414 411 -97 0
414 -411 97 0
-414 411 97 0
-414 -411 -97 0
415 100 -98 0
415 -100 98 0
-415 100 98 0
-415 -100 -98 0
-416 411 0
-416 98 0
-416 97 -100 0
-416 -97 100 0
416 -411 97 100 -98 0
416 -411 -97 -100 -98 0
417 414 -95 0
417 -414 95 0
-417 414 95 0
-417 -414 -95 0
418 98 -96 0
418 -98 96 0
-418 98 96 0
-418 -98 -96 0
-419 414 0
-419 96 0
-419 95 -98 0
-419 -95 98 0
419 -414 95 98 -96 0
419 -414 -95 -98 -96 0
420 417 -93 0
420 -417 93 0
-420 417 93 0
-420 -417 -93 0
421 96 -94 0
421 -96 94 0
-421 96 94 0
-421 -96 -94 0
-422 417 0
-422 94 0
-422 93 -96 0
-422 -93 96 0
422 -417 93 96 -94 0
422 -417 -93 -96 -94 0
423 420 -91 0
423 -420 91 0
-423 420 91 0
-423 -420 -91 0
424 94 -92 0
424 -94 92 0
-424 94 92 0
-424 -94 -92 0
-425 420 0
-425 92 0
-425 91 -94 0
-425 -91 94 0
425 -420 91 94 -92 0
425 -420 -91 -94 -92 0
426 423 -89 0
426 -423 89 0
-426 423 89 0
-426 -423 -89 0
427 92 -90 0
427 -92 90 0
-427 92 90 0
-427 -92 -90 0
-428 423 0
-428 90 0
-428 89 -92 0
-428 -89 92 0
428 -423 89 92 -90 0
428 -423 -89 -92 -90 0
429 426 -87 0
429 -426 87 0
-429 426 87 0
-429 -426 -87 0
430 90 -88 0
430 -90 88 0
-430 90 88 0
-430 -90 -88 0
-431 426 0
-431 88 0
-431 87 -90 0
-431 -87 90 0
431 -426 87 90 -88 0
431 -426 -87 -90 -88 0
432 429 -85 0
432 -429 85 0
-432 429 85 0
-432 -429 -85 0
433 88 -86 0
433 -88 86 0
-433 88 86 0
-433 -88 -86 0
-434 429 0
-434 86 0
-434 85 -88 0
-434 -85 88 0
434 -429 85 88 -86 0
434 -429 -85 -88 -86 0
435 432 -83 0
435 -432 83 0
-435 432 83 0
-435 -432 -83 0
436 86 -84 0
436 -86 84 0
-436 86 84 0
-436 -86 -84 0
-437 432 0
-437 84 0
-437 83 -86 0
-437 -83 86 0
437 -432 83 86 -84 0
437 -432 -83 -86 -84 0
438 435 -81 0
438 -435 81 0
-438 435 81 0
-438 -435 -81 0
439 84 -82 0
439 -84 82 0
-439 84 82 0
-439 -84 -82 0
-440 435 0
-440 82 0
-440 81 -84 0
-440 -81 84 0
440 -435 81 84 -82 0
440 -435 -81 -84 -82 0
441 438 -79 0
441 -438 79 0
-441 438 79 0
-441 -438 -79 0
442 82 -80 0
442 -82 80 0
-442 82 80 0
-442 -82 -80 0
-443 438 0
-443 80 0
-443 79 -82 0
-443 -79 82 0
443 -438 79 82 -80 0
443 -438 -79 -82 -80 0
444 441 -77 0
444 -441 77 0
-444 441 77 0
-444 -441 -77 0
445 80 -78 0
445 -80 78 0
-445 80 78 0
-445 -80 -78 0
-446 441 0
-446 78 0
-446 77 -80 0
-446 -77 80 0
446 -441 77 80 -78 0
446 -441 -77 -80 -78 0
447 444 -75 0
447 -444 75 0
-447 444 75 0
-447 -444 -75 0
448 78 -76 0
448 -78 76 0
-448 78 76 0
-448 -78 -76 0
-449 444 0
-449 76 0
-449 75 -78 0
-449 -75 78 0
449 -444 75 78 -76 0
449 -444 -75 -78 -76 0
450 447 -73 0
450 -447 73 0
-450 447 73 0
-450 -447 -73 0
451 76 -74 0
451 -76 74 0
-451 76 74 0
-451 -76 -74 0
-452 447 0
-452 74 0
-452 73 -76 0
-452 -73 76 0
452 -447 73 76 -74 0
452 -447 -73 -76 -74 0
453 450 -71 0
453 -450 71 0
-453 450 71 0
-453 -450 -71 0
454 74 -72 0
454 -74 72 0
-454 74 72 0
-454 -74 -72 0
-455 450 0
-455 72 0
-455 71 -74 0
-455 -71 74 0
455 -450 71 74 -72 0
455 -450 -71 -74 -72 0
456 453 -69 0
456 -453 69 0
-456 453 69 0
-456 -453 -69 0
457 72 -70 0
457 -72 70 0
-457 72 70 0
-457 -72 -70 0
-458 453 0
-458 70 0
-458 69 -72 0
-458 -69 72 0
458 -453 69 72 -70 0
458 -453 -69 -72 -70 0
459 456 -67 0
459 -456 67 0
-459 456 67 0
-459 -456 -67 0
460 70 -68 0
460 -70 68 0
-460 70 68 0
-460 -70 -68 0
-461 456 0
-461 68 0
-461 67 -70 0
-461 -67 70 0
461 -456 67 70 -68 0
461 -456 -67 -70 -68 0
462 459 -65 0
462 -459 65 0
-462 459 65 0
-462 -459 -65 0
463 68 -66 0
463 -68 66 0
-463 68 66 0
-463 -68 -66 0
-464 459 0
-464 66 0
-464 65 -68 0
-464 -65 68 0
464 -459 65 68 -66 0
464 -459 -65 -68 -66 0
465 462 -63 0
465 -462 63 0
-465 462 63 0
-465 -462 -63 0
466 66 -64 0
466 -66 64 0
-466 66 64 0
-466 -66 -64 0
-467 462 0
-467 64 0
-467 63 -66 0
-467 -63 66 0
467 -462 63 66 -64 0
467 -462 -63 -66 -64 0
468 465 -61 0
468 -465 61 0
-468 465 61 0
-468 -465 -61 0
469 64 -62 0
469 -64 62 0
-469 64 62 0
-469 -64 -62 0
-470 465 0
-470 62 0
-470 61 -64 0
-470 -61 64 0
470 -465 61 64 -62 0
470 -465 -61 -64 -62 0
471 468 -59 0
471 -468 59 0
-471 468 59 0
-471 -468 -59 0
472 62 -60 0
472 -62 60 0
-472 62 60 0
-472 -62 -60 0
-473 468 0
-473 60 0
-473 59 -62 0
-473 -59 62 0
473 -468 59 62 -60 0
473 -468 -59 -62 -60 0
474 471 -57 0
474 -471 57 0
-474 471 57 0
-474 -471 -57 0
475 60 -58 0
475 -60 58 0
-475 60 58 0
-475 -60 -58 0
-476 471 0
-476 58 0
-476 57 -60 0
-476 -57 60 0
476 -471 57 60 -58 0
476 -471 -57 -60 -58 0
477 474 -55 0
477 -474 55 0
-477 474 55 0
-477 -474 -55 0
478 58 -56 0
478 -58 56 0
-478 58 56 0
-478 -58 -56 0
-479 474 0
-479 56 0
-479 55 -58 0
-479 -55 58 0
479 -474 55 58 -56 0
479 -474 -55 -58 -56 0
480 477 -53 0
480 -477 53 0
-480 477 53 0
-480 -477 -53 0
481 56 -54 0
481 -56 54 0
-481 56 54 0
-481 -56 -54 0
-482 477 0
-482 54 0
-482 53 -56 0
-482 -53 56 0
482 -477 53 56 -54 0
482 -477 -53 -56 -54 0
483 480 -51 0
483 -480 51 0
-483 480 51 0
-483 -480 -51 0
484 54 -52 0
484 -54 52 0
-484 54 52 0
-484 -54 -52 0
-485 480 0
-485 52 0
-485 51 -54 0
-485 -51 54 0
485 -480 51 54 -52 0
485 -480 -51 -54 -52 0
486 483 -49 0
486 -483 49 0
-486 483 49 0
-486 -483 -49 0
487 52 -50 0
487 -52 50 0
-487 52 50 0
-487 -52 -50 0
-488 483 0
-488 50 0
-488 49 -52 0
-488 -49 52 0
488 -483 49 52 -50 0
488 -483 -49 -52 -50 0
489 486 -47 0
489 -486 47 0
-489 486 47 0
-489 -486 -47 0
490 50 -48 0
490 -50 48 0
-490 50 48 0
-490 -50 -48 0
-491 486 0
-491 48 0
-491 47 -50 0
-491 -47 50 0
491 -486 47 50 -48 0
491 -486 -47 -50 -48 0
492 489 -45 0
492 -489 45 0
-492 489 45 0
-492 -489 -45 0
493 48 -46 0
493 -48 46 0
-493 48 46 0
-493 -48 -46 0
-494 489 0
-494 46 0
-494 45 -48 0
-494 -45 48 0
494 -489 45 48 -46 0
494 -489 -45 -48 -46 0
495 492 -43 0
495 -492 43 0
-495 492 43 0
-495 -492 -43 0
496 46 -44 0
496 -46 44 0
-496 46 44 0
-496 -46 -44 0
-497 492 0
-497 44 0
-497 43 -46 0
-497 -43 46 0
497 -492 43 46 -44 0
497 -492 -43 -46 -44 0
498 495 -41 0
498 -495 41 0
-498 495 41 0
-498 -495 -41 0
499 44 -42 0
499 -44 42 0
-499 44 42 0
-499 -44 -42 0
-500 495 0
-500 42 0
-500 41 -44 0
-500 -41 44 0
500 -495 41 44 -42 0
500 -495 -41 -44 -42 0
501 498 -39 0
501 -498 39 0
-501 498 39 0
-501 -498 -39 0
502 42 -40 0
502 -42 40 0
-502 42 40 0
-502 -42 -40 0
-503 498 0
-503 40 0
-503 39 -42 0
-503 -39 42 0
503 -498 39 42 -40 0
503 -498 -39 -42 -40 0
504 501 -37 0
504 -501 37 0
-504 501 37 0
-504 -501 -37 0
505 40 -38 0
505 -40 38 0
-505 40 38 0
-505 -40 -38 0
-506 501 0
-506 38 0
-506 37 -40 0
-506 -37 40 0
506 -501 37 40 -38 0
506 -501 -37 -40 -38 0
507 504 -35 0
507 -504 35 0
-507 504 35 0
-507 -504 -35 0
508 38 -36 0
508 -38 36 0
-508 38 36 0
-508 -38 -36 0
-509 504 0
-509 36 0
-509 35 -38 0
-509 -35 38 0
509 -504 35 38 -36 0
509 -504 -35 -38 -36 0
510 507 -33 0
510 -507 33 0
-510 507 33 0
-510 -507 -33 0
511 36 -34 0
511 -36 34 0
-511 36 34 0
-511 -36 -34 0
-512 507 0
-512 34 0
-512 33 -36 0
-512 -33 36 0
512 -507 33 36 -34 0
512 -507 -33 -36 -34 0
513 510 -31 0
513 -510 31 0
-513 510 31 0
-513 -510 -31 0
514 34 -32 0
514 -34 32 0
-514 34 32 0
-514 -34 -32 0
-515 510 0
-515 32 0
-515 31 -34 0
-515 -31 34 0
515 -510 31 34 -32 0
515 -510 -31 -34 -32 0
516 513 -29 0
516 -513 29 0
-516 513 29 0
-516 -513 -29 0
517 32 -30 0
517 -32 30 0
-517 32 30 0
-517 -32 -30 0
-518 513 0
-518 30 0
-518 29 -32 0
-518 -29 32 0
518 -513 29 32 -30 0
518 -513 -29 -32 -30 0
519 516 -27 0
519 -516 27 0
-519 516 27 0
-519 -516 -27 0
520 30 -28 0
520 -30 28 0
-520 30 28 0
-520 -30 -28 0
-521 516 0
-521 28 0
-521 27 -30 0
-521 -27 30 0
521 -516 27 30 -28 0
521 -516 -27 -30 -28 0
522 519 -25 0
522 -519 25 0
-522 519 25 0
-522 -519 -25 0
523 28 -26 0
523 -28 26 0
-523 28 26 0
-523 -28 -26 0
-524 519 0
-524 26 0
-524 25 -28 0
-524 -25 28 0
524 -519 25 28 -26 0
524 -519 -25 -28 -26 0
525 522 -23 0
525 -522 23 0
-525 522 23 0
-525 -522 -23 0
526 26 -24 0
526 -26 24 0
-526 26 24 0
-526 -26 -24 0
-527 522 0
-527 24 0
-527 23 -26 0
-527 -23 26 0
527 -522 23 26 -24 0
527 -522 -23 -26 -24 0
528 525 -21 0
528 -525 21 0
-528 525 21 0
-528 -525 -21 0
529 24 -22 0
529 -24 22 0
-529 24 22 0
-529 -24 -22 0
-530 525 0
-530 22 0
-530 21 -24 0
-530 -21 24 0
530 -525 21 24 -22 0
530 -525 -21 -24 -22 0
531 528 -19 0
531 -528 19 0
-531 528 19 0
-531 -528 -19 0
532 22 -20 0
532 -22 20 0
-532 22 20 0
-532 -22 -20 0
-533 528 0
-533 20 0
-533 19 -22 0
-533 -19 22 0
533 -528 19 22 -20 0
533 -528 -19 -22 -20 0
534 531 -17 0
534 -531 17 0
-534 531 17 0
-534 -531 -17 0
535 20 -18 0
535 -20 18 0
-535 20 18 0
-535 -20 -18 0
-536 531 0
-536 18 0
-536 17 -20 0
-536 -17 20 0
536 -531 17 20 -18 0
536 -531 -17 -20 -18 0
537 534 -15 0
537 -534 15 0
-537 534 15 0
-537 -534 -15 0
538 18 -16 0
538 -18 16 0
-538 18 16 0
-538 -18 -16 0
-539 534 0
-539 16 0
-539 15 -18 0
-539 -15 18 0
539 -534 15 18 -16 0
539 -534 -15 -18 -16 0
540 537 -13 0
540 -537 13 0
-540 537 13 0
-540 -537 -13 0
541 16 -14 0
541 -16 14 0
-541 16 14 0
-541 -16 -14 0
-542 537 0
-542 14 0
-542 13 -16 0
-542 -13 16 0
542 -537 13 16 -14 0
542 -537 -13 -16 -14 0
543 540 -11 0
543 -540 11 0
-543 540 11 0
-543 -540 -11 0
544 14 -12 0
544 -14 12 0
-544 14 12 0
-544 -14 -12 0
-545 540 0
-545 12 0
-545 11 -14 0
-545 -11 14 0
545 -540 11 14 -12 0
545 -540 -11 -14 -12 0
546 543 -9 0
546 -543 9 0
-546 543 9 0
-546 -543 -9 0
547 12 -10 0
547 -12 10 0
-547 12 10 0
-547 -12 -10 0
-548 543 0
-548 10 0
-548 9 -12 0
-548 -9 12 0
548 -543 9 12 -10 0
548 -543 -9 -12 -10 0
549 546 -7 0
549 -546 7 0
-549 546 7 0
-549 -546 -7 0
550 10 -8 0
550 -10 8 0
-550 10 8 0
-550 -10 -8 0
-551 546 0
-551 8 0
-551 7 -10 0
-551 -7 10 0
551 -546 7 10 -8 0
551 -546 -7 -10 -8 0
552 549 -5 0
552 -549 5 0
-552 549 5 0
-552 -549 -5 0
553 8 -6 0
553 -8 6 0
-553 8 6 0
-553 -8 -6 0
-554 549 0
-554 6 0
-554 5 -8 0
-554 -5 8 0
554 -549 5 8 -6 0
554 -549 -5 -8 -6 0
555 552 -3 0
555 -552 3 0
-555 552 3 0
-555 -552 -3 0
556 6 -4 0
556 -6 4 0
-556 6 4 0
-556 -6 -4 0
-557 552 0
-557 4 0
-557 3 -6 0
-557 -3 6 0
557 -552 3 6 -4 0
557 -552 -3 -6 -4 0
558 555 -1 0
558 -555 1 0
-558 555 1 0
-558 -555 -1 0
559 4 -2 0
559 -4 2 0
-559 4 2 0
-559 -4 -2 0
-560 555 0
-560 2 0
-560 1 -4 0
-560 -1 4 0
560 -555 1 4 -2 0
560 -555 -1 -4 -2 0
-558 0
-555 0
-559 0
-552 0
-556 0
-549 0
-553 0
-546 0
-550 0
-543 0
-547 0
-540 0
-544 0
-537 0
-541 0
-534 0
-538 0
-531 0
-535 0
-528 0
-532 0
-525 0
-529 0
-522 0
-526 0
-519 0
-523 0
-516 0
-520 0
-513 0
-517 0
-510 0
-514 0
-507 0
-511 0
-504 0
-508 0
-501 0
-505 0
-498 0
-502 0
-495 0
-499 0
-492 0
-496 0
-489 0
-493 0
-486 0
-490 0
-483 0
-487 0
-480 0
-484 0
-477 0
-481 0
-474 0
-478 0
-471 0
-475 0
-468 0
-472 0
-465 0
-469 0
-462 0
-466 0
-459 0
-463 0
-456 0
-460 0
-453 0
-457 0
-450 0
-454 0
-447 0
-451 0
-444 0
-448 0
-441 0
-445 0
-438 0
-442 0
-435 0
-439 0
-432 0
-436 0
-429 0
-433 0
-426 0
-430 0
-423 0
-427 0
-420 0
-424 0
-417 0
-421 0
-414 0
-418 0
-411 0
-415 0
-408 0
-412 0
-405 0
-409 0
-402 0
-406 0
-399 0
-403 0
-396 0
-400 0
-393 0
-397 0
-390 0
-394 0
-387 0
-391 0
-384 0
-388 0
-381 0
-385 0
-378 0
-382 0
-375 0
-379 0
-372 0
-376 0
-369 0
-373 0
-366 0
-370 0
-363 0
-367 0
-360 0
-364 0
-357 0
-361 0
-354 0
-358 0
-351 0
-355 0
-348 0
-352 0
-345 0
-349 0
-342 0
-346 0
-339 0
-343 0
-336 0
-340 0
-333 0
-337 0
-330 0
-334 0
-327 0
-331 0
-324 0
-328 0
-321 0
-325 0
-318 0
-322 0
-315 0
-319 0
-312 0
-316 0
-309 0
-313 0
-306 0
-310 0
-303 0
-307 0
-300 0
-304 0
-297 0
-301 0
-294 0
-298 0
-291 0
-295 0
-288 0
-292 0
-285 0
-289 0
-282 0
-286 0
-279 0
-283 0
-276 0
-280 0
-273 0
-277 0
-270 0
-274 0
-267 0
-271 0
-264 0
-268 0
-261 0
-265 0
-258 0
-262 0
-255 0
-259 0
-252 0
-256 0
-249 0
-253 0
-246 0
-250 0
-243 0
-247 0
-240 0
-244 0
-237 0
-241 0
-234 0
-238 0
-231 0
-235 0
-225 0
-232 0
